p cnf 567 672
41 42 1 64 65 0
41 42 1 64 -65 0
41 42 1 -64 66 0
41 42 1 -64 -66 0
-41 -42 1 67 68 0
-41 -42 1 67 -68 0
-41 -42 1 -67 69 0
-41 -42 1 -67 -69 0
41 -42 -1 70 71 0
41 -42 -1 70 -71 0
41 -42 -1 -70 72 0
41 -42 -1 -70 -72 0
-41 42 -1 73 74 0
-41 42 -1 73 -74 0
-41 42 -1 -73 75 0
-41 42 -1 -73 -75 0
1 43 2 76 77 0
1 43 2 76 -77 0
1 43 2 -76 78 0
1 43 2 -76 -78 0
-1 -43 2 79 80 0
-1 -43 2 79 -80 0
-1 -43 2 -79 81 0
-1 -43 2 -79 -81 0
1 -43 -2 82 83 0
1 -43 -2 82 -83 0
1 -43 -2 -82 84 0
1 -43 -2 -82 -84 0
-1 43 -2 85 86 0
-1 43 -2 85 -86 0
-1 43 -2 -85 87 0
-1 43 -2 -85 -87 0
2 44 3 88 89 0
2 44 3 88 -89 0
2 44 3 -88 90 0
2 44 3 -88 -90 0
-2 -44 3 91 92 0
-2 -44 3 91 -92 0
-2 -44 3 -91 93 0
-2 -44 3 -91 -93 0
2 -44 -3 94 95 0
2 -44 -3 94 -95 0
2 -44 -3 -94 96 0
2 -44 -3 -94 -96 0
-2 44 -3 97 98 0
-2 44 -3 97 -98 0
-2 44 -3 -97 99 0
-2 44 -3 -97 -99 0
3 45 4 100 101 0
3 45 4 100 -101 0
3 45 4 -100 102 0
3 45 4 -100 -102 0
-3 -45 4 103 104 0
-3 -45 4 103 -104 0
-3 -45 4 -103 105 0
-3 -45 4 -103 -105 0
3 -45 -4 106 107 0
3 -45 -4 106 -107 0
3 -45 -4 -106 108 0
3 -45 -4 -106 -108 0
-3 45 -4 109 110 0
-3 45 -4 109 -110 0
-3 45 -4 -109 111 0
-3 45 -4 -109 -111 0
4 46 5 112 113 0
4 46 5 112 -113 0
4 46 5 -112 114 0
4 46 5 -112 -114 0
-4 -46 5 115 116 0
-4 -46 5 115 -116 0
-4 -46 5 -115 117 0
-4 -46 5 -115 -117 0
4 -46 -5 118 119 0
4 -46 -5 118 -119 0
4 -46 -5 -118 120 0
4 -46 -5 -118 -120 0
-4 46 -5 121 122 0
-4 46 -5 121 -122 0
-4 46 -5 -121 123 0
-4 46 -5 -121 -123 0
5 47 6 124 125 0
5 47 6 124 -125 0
5 47 6 -124 126 0
5 47 6 -124 -126 0
-5 -47 6 127 128 0
-5 -47 6 127 -128 0
-5 -47 6 -127 129 0
-5 -47 6 -127 -129 0
5 -47 -6 130 131 0
5 -47 -6 130 -131 0
5 -47 -6 -130 132 0
5 -47 -6 -130 -132 0
-5 47 -6 133 134 0
-5 47 -6 133 -134 0
-5 47 -6 -133 135 0
-5 47 -6 -133 -135 0
6 48 7 136 137 0
6 48 7 136 -137 0
6 48 7 -136 138 0
6 48 7 -136 -138 0
-6 -48 7 139 140 0
-6 -48 7 139 -140 0
-6 -48 7 -139 141 0
-6 -48 7 -139 -141 0
6 -48 -7 142 143 0
6 -48 -7 142 -143 0
6 -48 -7 -142 144 0
6 -48 -7 -142 -144 0
-6 48 -7 145 146 0
-6 48 -7 145 -146 0
-6 48 -7 -145 147 0
-6 48 -7 -145 -147 0
7 49 8 148 149 0
7 49 8 148 -149 0
7 49 8 -148 150 0
7 49 8 -148 -150 0
-7 -49 8 151 152 0
-7 -49 8 151 -152 0
-7 -49 8 -151 153 0
-7 -49 8 -151 -153 0
7 -49 -8 154 155 0
7 -49 -8 154 -155 0
7 -49 -8 -154 156 0
7 -49 -8 -154 -156 0
-7 49 -8 157 158 0
-7 49 -8 157 -158 0
-7 49 -8 -157 159 0
-7 49 -8 -157 -159 0
8 50 9 160 161 0
8 50 9 160 -161 0
8 50 9 -160 162 0
8 50 9 -160 -162 0
-8 -50 9 163 164 0
-8 -50 9 163 -164 0
-8 -50 9 -163 165 0
-8 -50 9 -163 -165 0
8 -50 -9 166 167 0
8 -50 -9 166 -167 0
8 -50 -9 -166 168 0
8 -50 -9 -166 -168 0
-8 50 -9 169 170 0
-8 50 -9 169 -170 0
-8 50 -9 -169 171 0
-8 50 -9 -169 -171 0
9 51 10 172 173 0
9 51 10 172 -173 0
9 51 10 -172 174 0
9 51 10 -172 -174 0
-9 -51 10 175 176 0
-9 -51 10 175 -176 0
-9 -51 10 -175 177 0
-9 -51 10 -175 -177 0
9 -51 -10 178 179 0
9 -51 -10 178 -179 0
9 -51 -10 -178 180 0
9 -51 -10 -178 -180 0
-9 51 -10 181 182 0
-9 51 -10 181 -182 0
-9 51 -10 -181 183 0
-9 51 -10 -181 -183 0
10 52 11 184 185 0
10 52 11 184 -185 0
10 52 11 -184 186 0
10 52 11 -184 -186 0
-10 -52 11 187 188 0
-10 -52 11 187 -188 0
-10 -52 11 -187 189 0
-10 -52 11 -187 -189 0
10 -52 -11 190 191 0
10 -52 -11 190 -191 0
10 -52 -11 -190 192 0
10 -52 -11 -190 -192 0
-10 52 -11 193 194 0
-10 52 -11 193 -194 0
-10 52 -11 -193 195 0
-10 52 -11 -193 -195 0
11 53 12 196 197 0
11 53 12 196 -197 0
11 53 12 -196 198 0
11 53 12 -196 -198 0
-11 -53 12 199 200 0
-11 -53 12 199 -200 0
-11 -53 12 -199 201 0
-11 -53 12 -199 -201 0
11 -53 -12 202 203 0
11 -53 -12 202 -203 0
11 -53 -12 -202 204 0
11 -53 -12 -202 -204 0
-11 53 -12 205 206 0
-11 53 -12 205 -206 0
-11 53 -12 -205 207 0
-11 53 -12 -205 -207 0
12 54 13 208 209 0
12 54 13 208 -209 0
12 54 13 -208 210 0
12 54 13 -208 -210 0
-12 -54 13 211 212 0
-12 -54 13 211 -212 0
-12 -54 13 -211 213 0
-12 -54 13 -211 -213 0
12 -54 -13 214 215 0
12 -54 -13 214 -215 0
12 -54 -13 -214 216 0
12 -54 -13 -214 -216 0
-12 54 -13 217 218 0
-12 54 -13 217 -218 0
-12 54 -13 -217 219 0
-12 54 -13 -217 -219 0
13 55 14 220 221 0
13 55 14 220 -221 0
13 55 14 -220 222 0
13 55 14 -220 -222 0
-13 -55 14 223 224 0
-13 -55 14 223 -224 0
-13 -55 14 -223 225 0
-13 -55 14 -223 -225 0
13 -55 -14 226 227 0
13 -55 -14 226 -227 0
13 -55 -14 -226 228 0
13 -55 -14 -226 -228 0
-13 55 -14 229 230 0
-13 55 -14 229 -230 0
-13 55 -14 -229 231 0
-13 55 -14 -229 -231 0
14 56 15 232 233 0
14 56 15 232 -233 0
14 56 15 -232 234 0
14 56 15 -232 -234 0
-14 -56 15 235 236 0
-14 -56 15 235 -236 0
-14 -56 15 -235 237 0
-14 -56 15 -235 -237 0
14 -56 -15 238 239 0
14 -56 -15 238 -239 0
14 -56 -15 -238 240 0
14 -56 -15 -238 -240 0
-14 56 -15 241 242 0
-14 56 -15 241 -242 0
-14 56 -15 -241 243 0
-14 56 -15 -241 -243 0
15 57 16 244 245 0
15 57 16 244 -245 0
15 57 16 -244 246 0
15 57 16 -244 -246 0
-15 -57 16 247 248 0
-15 -57 16 247 -248 0
-15 -57 16 -247 249 0
-15 -57 16 -247 -249 0
15 -57 -16 250 251 0
15 -57 -16 250 -251 0
15 -57 -16 -250 252 0
15 -57 -16 -250 -252 0
-15 57 -16 253 254 0
-15 57 -16 253 -254 0
-15 57 -16 -253 255 0
-15 57 -16 -253 -255 0
16 58 17 256 257 0
16 58 17 256 -257 0
16 58 17 -256 258 0
16 58 17 -256 -258 0
-16 -58 17 259 260 0
-16 -58 17 259 -260 0
-16 -58 17 -259 261 0
-16 -58 17 -259 -261 0
16 -58 -17 262 263 0
16 -58 -17 262 -263 0
16 -58 -17 -262 264 0
16 -58 -17 -262 -264 0
-16 58 -17 265 266 0
-16 58 -17 265 -266 0
-16 58 -17 -265 267 0
-16 58 -17 -265 -267 0
17 59 18 268 269 0
17 59 18 268 -269 0
17 59 18 -268 270 0
17 59 18 -268 -270 0
-17 -59 18 271 272 0
-17 -59 18 271 -272 0
-17 -59 18 -271 273 0
-17 -59 18 -271 -273 0
17 -59 -18 274 275 0
17 -59 -18 274 -275 0
17 -59 -18 -274 276 0
17 -59 -18 -274 -276 0
-17 59 -18 277 278 0
-17 59 -18 277 -278 0
-17 59 -18 -277 279 0
-17 59 -18 -277 -279 0
18 60 19 280 281 0
18 60 19 280 -281 0
18 60 19 -280 282 0
18 60 19 -280 -282 0
-18 -60 19 283 284 0
-18 -60 19 283 -284 0
-18 -60 19 -283 285 0
-18 -60 19 -283 -285 0
18 -60 -19 286 287 0
18 -60 -19 286 -287 0
18 -60 -19 -286 288 0
18 -60 -19 -286 -288 0
-18 60 -19 289 290 0
-18 60 -19 289 -290 0
-18 60 -19 -289 291 0
-18 60 -19 -289 -291 0
19 61 20 292 293 0
19 61 20 292 -293 0
19 61 20 -292 294 0
19 61 20 -292 -294 0
-19 -61 20 295 296 0
-19 -61 20 295 -296 0
-19 -61 20 -295 297 0
-19 -61 20 -295 -297 0
19 -61 -20 298 299 0
19 -61 -20 298 -299 0
19 -61 -20 -298 300 0
19 -61 -20 -298 -300 0
-19 61 -20 301 302 0
-19 61 -20 301 -302 0
-19 61 -20 -301 303 0
-19 61 -20 -301 -303 0
20 62 63 304 305 0
20 62 63 304 -305 0
20 62 63 -304 306 0
20 62 63 -304 -306 0
-20 -62 63 307 308 0
-20 -62 63 307 -308 0
-20 -62 63 -307 309 0
-20 -62 63 -307 -309 0
20 -62 -63 310 311 0
20 -62 -63 310 -311 0
20 -62 -63 -310 312 0
20 -62 -63 -310 -312 0
-20 62 -63 313 314 0
-20 62 -63 313 -314 0
-20 62 -63 -313 315 0
-20 62 -63 -313 -315 0
21 62 63 316 317 0
21 62 63 316 -317 0
21 62 63 -316 318 0
21 62 63 -316 -318 0
-21 -62 63 319 320 0
-21 -62 63 319 -320 0
-21 -62 63 -319 321 0
-21 -62 63 -319 -321 0
21 -62 -63 322 323 0
21 -62 -63 322 -323 0
21 -62 -63 -322 324 0
21 -62 -63 -322 -324 0
-21 62 -63 325 326 0
-21 62 -63 325 -326 0
-21 62 -63 -325 327 0
-21 62 -63 -325 -327 0
22 61 21 328 329 0
22 61 21 328 -329 0
22 61 21 -328 330 0
22 61 21 -328 -330 0
-22 -61 21 331 332 0
-22 -61 21 331 -332 0
-22 -61 21 -331 333 0
-22 -61 21 -331 -333 0
22 -61 -21 334 335 0
22 -61 -21 334 -335 0
22 -61 -21 -334 336 0
22 -61 -21 -334 -336 0
-22 61 -21 337 338 0
-22 61 -21 337 -338 0
-22 61 -21 -337 339 0
-22 61 -21 -337 -339 0
23 60 22 340 341 0
23 60 22 340 -341 0
23 60 22 -340 342 0
23 60 22 -340 -342 0
-23 -60 22 343 344 0
-23 -60 22 343 -344 0
-23 -60 22 -343 345 0
-23 -60 22 -343 -345 0
23 -60 -22 346 347 0
23 -60 -22 346 -347 0
23 -60 -22 -346 348 0
23 -60 -22 -346 -348 0
-23 60 -22 349 350 0
-23 60 -22 349 -350 0
-23 60 -22 -349 351 0
-23 60 -22 -349 -351 0
24 59 23 352 353 0
24 59 23 352 -353 0
24 59 23 -352 354 0
24 59 23 -352 -354 0
-24 -59 23 355 356 0
-24 -59 23 355 -356 0
-24 -59 23 -355 357 0
-24 -59 23 -355 -357 0
24 -59 -23 358 359 0
24 -59 -23 358 -359 0
24 -59 -23 -358 360 0
24 -59 -23 -358 -360 0
-24 59 -23 361 362 0
-24 59 -23 361 -362 0
-24 59 -23 -361 363 0
-24 59 -23 -361 -363 0
25 58 24 364 365 0
25 58 24 364 -365 0
25 58 24 -364 366 0
25 58 24 -364 -366 0
-25 -58 24 367 368 0
-25 -58 24 367 -368 0
-25 -58 24 -367 369 0
-25 -58 24 -367 -369 0
25 -58 -24 370 371 0
25 -58 -24 370 -371 0
25 -58 -24 -370 372 0
25 -58 -24 -370 -372 0
-25 58 -24 373 374 0
-25 58 -24 373 -374 0
-25 58 -24 -373 375 0
-25 58 -24 -373 -375 0
26 57 25 376 377 0
26 57 25 376 -377 0
26 57 25 -376 378 0
26 57 25 -376 -378 0
-26 -57 25 379 380 0
-26 -57 25 379 -380 0
-26 -57 25 -379 381 0
-26 -57 25 -379 -381 0
26 -57 -25 382 383 0
26 -57 -25 382 -383 0
26 -57 -25 -382 384 0
26 -57 -25 -382 -384 0
-26 57 -25 385 386 0
-26 57 -25 385 -386 0
-26 57 -25 -385 387 0
-26 57 -25 -385 -387 0
27 56 26 388 389 0
27 56 26 388 -389 0
27 56 26 -388 390 0
27 56 26 -388 -390 0
-27 -56 26 391 392 0
-27 -56 26 391 -392 0
-27 -56 26 -391 393 0
-27 -56 26 -391 -393 0
27 -56 -26 394 395 0
27 -56 -26 394 -395 0
27 -56 -26 -394 396 0
27 -56 -26 -394 -396 0
-27 56 -26 397 398 0
-27 56 -26 397 -398 0
-27 56 -26 -397 399 0
-27 56 -26 -397 -399 0
28 55 27 400 401 0
28 55 27 400 -401 0
28 55 27 -400 402 0
28 55 27 -400 -402 0
-28 -55 27 403 404 0
-28 -55 27 403 -404 0
-28 -55 27 -403 405 0
-28 -55 27 -403 -405 0
28 -55 -27 406 407 0
28 -55 -27 406 -407 0
28 -55 -27 -406 408 0
28 -55 -27 -406 -408 0
-28 55 -27 409 410 0
-28 55 -27 409 -410 0
-28 55 -27 -409 411 0
-28 55 -27 -409 -411 0
29 54 28 412 413 0
29 54 28 412 -413 0
29 54 28 -412 414 0
29 54 28 -412 -414 0
-29 -54 28 415 416 0
-29 -54 28 415 -416 0
-29 -54 28 -415 417 0
-29 -54 28 -415 -417 0
29 -54 -28 418 419 0
29 -54 -28 418 -419 0
29 -54 -28 -418 420 0
29 -54 -28 -418 -420 0
-29 54 -28 421 422 0
-29 54 -28 421 -422 0
-29 54 -28 -421 423 0
-29 54 -28 -421 -423 0
30 53 29 424 425 0
30 53 29 424 -425 0
30 53 29 -424 426 0
30 53 29 -424 -426 0
-30 -53 29 427 428 0
-30 -53 29 427 -428 0
-30 -53 29 -427 429 0
-30 -53 29 -427 -429 0
30 -53 -29 430 431 0
30 -53 -29 430 -431 0
30 -53 -29 -430 432 0
30 -53 -29 -430 -432 0
-30 53 -29 433 434 0
-30 53 -29 433 -434 0
-30 53 -29 -433 435 0
-30 53 -29 -433 -435 0
31 52 30 436 437 0
31 52 30 436 -437 0
31 52 30 -436 438 0
31 52 30 -436 -438 0
-31 -52 30 439 440 0
-31 -52 30 439 -440 0
-31 -52 30 -439 441 0
-31 -52 30 -439 -441 0
31 -52 -30 442 443 0
31 -52 -30 442 -443 0
31 -52 -30 -442 444 0
31 -52 -30 -442 -444 0
-31 52 -30 445 446 0
-31 52 -30 445 -446 0
-31 52 -30 -445 447 0
-31 52 -30 -445 -447 0
32 51 31 448 449 0
32 51 31 448 -449 0
32 51 31 -448 450 0
32 51 31 -448 -450 0
-32 -51 31 451 452 0
-32 -51 31 451 -452 0
-32 -51 31 -451 453 0
-32 -51 31 -451 -453 0
32 -51 -31 454 455 0
32 -51 -31 454 -455 0
32 -51 -31 -454 456 0
32 -51 -31 -454 -456 0
-32 51 -31 457 458 0
-32 51 -31 457 -458 0
-32 51 -31 -457 459 0
-32 51 -31 -457 -459 0
33 50 32 460 461 0
33 50 32 460 -461 0
33 50 32 -460 462 0
33 50 32 -460 -462 0
-33 -50 32 463 464 0
-33 -50 32 463 -464 0
-33 -50 32 -463 465 0
-33 -50 32 -463 -465 0
33 -50 -32 466 467 0
33 -50 -32 466 -467 0
33 -50 -32 -466 468 0
33 -50 -32 -466 -468 0
-33 50 -32 469 470 0
-33 50 -32 469 -470 0
-33 50 -32 -469 471 0
-33 50 -32 -469 -471 0
34 49 33 472 473 0
34 49 33 472 -473 0
34 49 33 -472 474 0
34 49 33 -472 -474 0
-34 -49 33 475 476 0
-34 -49 33 475 -476 0
-34 -49 33 -475 477 0
-34 -49 33 -475 -477 0
34 -49 -33 478 479 0
34 -49 -33 478 -479 0
34 -49 -33 -478 480 0
34 -49 -33 -478 -480 0
-34 49 -33 481 482 0
-34 49 -33 481 -482 0
-34 49 -33 -481 483 0
-34 49 -33 -481 -483 0
35 48 34 484 485 0
35 48 34 484 -485 0
35 48 34 -484 486 0
35 48 34 -484 -486 0
-35 -48 34 487 488 0
-35 -48 34 487 -488 0
-35 -48 34 -487 489 0
-35 -48 34 -487 -489 0
35 -48 -34 490 491 0
35 -48 -34 490 -491 0
35 -48 -34 -490 492 0
35 -48 -34 -490 -492 0
-35 48 -34 493 494 0
-35 48 -34 493 -494 0
-35 48 -34 -493 495 0
-35 48 -34 -493 -495 0
36 47 35 496 497 0
36 47 35 496 -497 0
36 47 35 -496 498 0
36 47 35 -496 -498 0
-36 -47 35 499 500 0
-36 -47 35 499 -500 0
-36 -47 35 -499 501 0
-36 -47 35 -499 -501 0
36 -47 -35 502 503 0
36 -47 -35 502 -503 0
36 -47 -35 -502 504 0
36 -47 -35 -502 -504 0
-36 47 -35 505 506 0
-36 47 -35 505 -506 0
-36 47 -35 -505 507 0
-36 47 -35 -505 -507 0
37 46 36 508 509 0
37 46 36 508 -509 0
37 46 36 -508 510 0
37 46 36 -508 -510 0
-37 -46 36 511 512 0
-37 -46 36 511 -512 0
-37 -46 36 -511 513 0
-37 -46 36 -511 -513 0
37 -46 -36 514 515 0
37 -46 -36 514 -515 0
37 -46 -36 -514 516 0
37 -46 -36 -514 -516 0
-37 46 -36 517 518 0
-37 46 -36 517 -518 0
-37 46 -36 -517 519 0
-37 46 -36 -517 -519 0
38 45 37 520 521 0
38 45 37 520 -521 0
38 45 37 -520 522 0
38 45 37 -520 -522 0
-38 -45 37 523 524 0
-38 -45 37 523 -524 0
-38 -45 37 -523 525 0
-38 -45 37 -523 -525 0
38 -45 -37 526 527 0
38 -45 -37 526 -527 0
38 -45 -37 -526 528 0
38 -45 -37 -526 -528 0
-38 45 -37 529 530 0
-38 45 -37 529 -530 0
-38 45 -37 -529 531 0
-38 45 -37 -529 -531 0
39 44 38 532 533 0
39 44 38 532 -533 0
39 44 38 -532 534 0
39 44 38 -532 -534 0
-39 -44 38 535 536 0
-39 -44 38 535 -536 0
-39 -44 38 -535 537 0
-39 -44 38 -535 -537 0
39 -44 -38 538 539 0
39 -44 -38 538 -539 0
39 -44 -38 -538 540 0
39 -44 -38 -538 -540 0
-39 44 -38 541 542 0
-39 44 -38 541 -542 0
-39 44 -38 -541 543 0
-39 44 -38 -541 -543 0
40 43 39 544 545 0
40 43 39 544 -545 0
40 43 39 -544 546 0
40 43 39 -544 -546 0
-40 -43 39 547 548 0
-40 -43 39 547 -548 0
-40 -43 39 -547 549 0
-40 -43 39 -547 -549 0
40 -43 -39 550 551 0
40 -43 -39 550 -551 0
40 -43 -39 -550 552 0
40 -43 -39 -550 -552 0
-40 43 -39 553 554 0
-40 43 -39 553 -554 0
-40 43 -39 -553 555 0
-40 43 -39 -553 -555 0
41 42 -40 556 557 0
41 42 -40 556 -557 0
41 42 -40 -556 558 0
41 42 -40 -556 -558 0
-41 -42 -40 559 560 0
-41 -42 -40 559 -560 0
-41 -42 -40 -559 561 0
-41 -42 -40 -559 -561 0
41 -42 40 562 563 0
41 -42 40 562 -563 0
41 -42 40 -562 564 0
41 -42 40 -562 -564 0
-41 42 40 565 566 0
-41 42 40 565 -566 0
-41 42 40 -565 567 0
-41 42 40 -565 -567 0

